SAT
1 -2 -3 -10 -31 4 -5 -6 -55 7 -8 -9 -19 -58 11 -12 13 -14 -15 16 -17 -18 -43 -49 20 -21 22 -23 -24 25 -26 -27 -34 -46 28 -29 -30 32 -33 35 -36 37 -38 -39 -52 40 -41 -42 44 -45 47 -48 50 -51 53 -54 56 -57 59 -60 0